2	19	1	8	29	100	0	0	0	0	0	0
1400	1	0	0	0	0	0	0	0	0	0	0
1400	1	0	0	0	0	0	0	0	0	0	0
175	1	0	117.66	2.29	1	0	0	0	0	0	0
175	1	0	117.66	2.29	1	0	0	0	0	0	0
175	1	0	117.66	2.29	1	0	0	0	0	0	0
175	1	0	117.66	2.29	1	0	0	0	0	0	0
175	1	0	117.66	2.29	1	0	0	0	0	0	0
175	1	0	117.66	2.29	1	0	0	0	0	0	0
175	1	0	117.66	2.29	1	0	0	0	0	0	0
175	1	0	117.66	2.29	1	0	0	0	0	0	0
175	1	0	117.66	2.29	1	0	0	0	0	0	0
175	1	0	117.66	2.29	1	0	0	0	0	0	0
175	1	0	117.66	2.29	1	0	0	0	0	0	0
175	1	0	117.66	2.29	1	0	0	0	0	0	0
175	1	0	117.66	2.29	1	0	0	0	0	0	0
175	1	0	117.66	2.29	1	0	0	0	0	0	0
175	1	0	117.66	2.29	1	0	0	0	0	0	0
175	1	0	117.66	2.29	1	0	0	0	0	0	0
175	1	0	117.66	2.29	1	0	0	0	0	0	0
175	1	0	117.66	2.29	1	0	0	0	0	0	0
175	1	0	117.66	2.29	1	0	0	0	0	0	0
50	150	0	0	0	0	3390	0	0	99999	0	0
25	25	0	0	0	0	3390	0	0	99999	0	0
50	25	0	0	0	0	3390	0	0	99999	0	0
75	25	0	0	0	0	3390	0	0	99999	0	0
25	50	0	0	0	0	3390	0	0	99999	0	0
75	50	0	0	0	0	3390	0	0	99999	0	0
25	75	0	0	0	0	3390	0	0	99999	0	0
50	75	0	0	0	0	3390	0	0	99999	0	0
75	75	0	0	0	0	3390	0	0	99999	0	0
25	25	0	0	0	0	3390	0	0	0	0	0
50	25	0	0	0	0	3390	0	0	0	0	0
75	25	0	0	0	0	3390	0	0	0	0	0
25	50	0	0	0	0	3390	0	0	0	0	0
75	50	0	0	0	0	3390	0	0	0	0	0
25	75	0	0	0	0	3390	0	0	0	0	0
50	75	0	0	0	0	3390	0	0	0	0	0
75	75	0	0	0	0	3390	0	0	0	0	0
40      50      0       0       0       0       1236    0       0       0       0       0
73      52      0       0       0       0       1236    0       0       0       0       0
90      55      0       0       0       0       1236    0       0       0       0       0
55      79      0       0       0       0       1236    0       0       0       0       0
69      89      0       0       0       0       1236    0       0       0       0       0
32      80      0       0       0       0       1236    0       0       0       0       0
39      96      0       0       0       0       1236    0       0       0       0       0
23      80      0       0       0       0       1236    0       0       0       0       0
4	83	0	0	0	0	3390	0	0	0	0	0
18	58	0	0	0	0	3390	0	0	0	0	0
1	56	0	0	0	0	3390	0	0	0	0	0
13	31	0	0	0	0	3390	0	0	0	0	0
-5	38	0	0	0	0	3390	0	0	0	0	0
26	37	0	0	0	0	3390	0	0	0	0	0
28	13	0	0	0	0	3390	0	0	0	0	0
39	31	0	0	0	0	3390	0	0	0	0	0
48	11	0	0	0	0	3390	0	0	0	0	0
59	17	0	0	0	0	3390	0	0	0	0	0
73	23	0	0	0	0	3390	0	0	0	0	0
74	32	0	0	0	0	3390	0	0	0	0	0
90	44	0	0	0	0	3390	0	0	0	0	0
52	75	10	7	3	822	1512	90	0	0	0	0
45	70	30	19	11	1043	1487	90	0	0	0	0
62	69	10	9	1	131	990	90	0	0	0	0
60	66	10	9	1	127	1086	90	0	0	0	0
42	65	10	6	4	903	2003	90	0	0	0	0
16	42	20	8	12	2435	3015	90	0	0	0	0
58	70	20	17	3	128	807	90	0	0	0	0
34	60	20	11	9	113	959	90	0	0	0	0
28	70	10	4	6	125	1407	90	0	0	0	0
35	66	10	5	5	118	911	90	0	0	0	0
35	69	10	5	5	121	1073	90	0	0	0	0
25	85	20	6	14	495	883	90	0	0	0	0
22	75	30	9	21	133	861	90	0	0	0	0
22	85	10	3	7	413	1151	90	0	0	0	0
20	80	40	10	30	514	670	90	0	0	0	0
20	85	40	9	31	595	1153	90	0	0	0	0
18	75	20	5	15	584	1734	90	0	0	0	0
15	75	20	4	16	995	1137	90	0	0	0	0
15	80	10	2	8	693	1249	90	0	0	0	0
30	50	10	6	4	2798	3391	90	0	0	0	0
30	56	20	11	9	2727	3389	90	0	0	0	0
28	52	20	11	9	2809	3388	90	0	0	0	0
14	66	10	2	8	1101	1613	90	0	0	0	0
25	50	10	5	5	2579	3386	90	0	0	0	0
22	66	40	13	27	742	1776	90	0	0	0	0
8	62	10	1	9	980	1930	90	0	0	0	0
23	52	10	4	6	2900	3126	90	0	0	0	0
4	55	20	1	19	1284	2264	90	0	0	0	0
20	50	10	4	6	2646	3000	90	0	0	0	0
20	55	10	4	6	2726	3110	90	0	0	0	0
10	35	20	6	14	2270	2612	90	0	0	0	0
10	40	30	8	22	2222	3034	90	0	0	0	0
8	40	40	8	32	1907	3165	90	0	0	0	0
8	45	20	4	16	1731	2019	90	0	0	0	0
5	35	10	1	9	1892	2800	90	0	0	0	0
5	45	10	1	9	1545	2391	90	0	0	0	0
2	40	20	1	19	2102	2398	90	0	0	0	0
0	40	30	0	30	1841	2475	90	0	0	0	0
0	45	20	0	20	1677	2449	90	0	0	0	0
36	18	10	5	5	898	1400	90	0	0	0	0
35	32	10	9	1	120	727	90	0	0	0	0
33	32	20	19	1	228	558	90	0	0	0	0
33	35	10	9	1	118	726	90	0	0	0	0
32	20	10	6	4	714	1396	90	0	0	0	0
30	30	10	10	0	646	1080	90	0	0	0	0
34	25	30	22	8	592	1326	90	0	0	0	0
30	35	10	9	1	249	727	90	0	0	0	0
36	40	10	9	1	112	644	90	0	0	0	0
48	20	10	4	6	1802	2478	90	0	0	0	0
26	32	10	8	2	488	864	90	0	0	0	0
25	30	10	8	2	370	1166	90	0	0	0	0
25	35	10	7	3	278	888	90	0	0	0	0
44	5	20	2	18	1329	2375	90	0	0	0	0
42	10	40	10	30	1681	2213	90	0	0	0	0
42	15	10	4	6	1766	2318	90	0	0	0	0
40	5	30	4	26	1460	2056	90	0	0	0	0
38	15	40	16	24	863	1901	90	0	0	0	0
38	5	30	4	26	1299	2033	90	0	0	0	0
38	10	10	3	7	1204	1750	90	0	0	0	0
35	5	20	3	17	1315	1831	90	0	0	0	0
50	30	10	6	4	1847	3193	90	0	0	0	0
50	35	20	14	6	2500	3102	90	0	0	0	0
50	40	50	40	10	1643	2539	90	0	0	0	0
48	30	10	6	4	2093	2763	90	0	0	0	0
44	25	10	6	4	1755	2719	90	0	0	0	0
47	35	10	7	3	2574	3214	90	0	0	0	0
47	40	10	9	1	1663	2705	90	0	0	0	0
42	30	10	7	3	1932	2732	90	0	0	0	0
45	35	10	8	2	2508	3385	90	0	0	0	0
95	30	30	9	21	1003	1429	90	0	0	0	0
95	35	20	7	13	783	1459	90	0	0	0	0
53	30	10	6	4	2453	2773	90	0	0	0	0
92	30	10	3	7	792	1826	90	0	0	0	0
53	35	50	33	17	2350	3066	90	0	0	0	0
45	65	20	14	6	831	1889	90	0	0	0	0
90	35	10	4	6	666	1386	90	0	0	0	0
72	45	10	6	4	1402	2188	90	0	0	0	0
78	40	20	10	10	1324	2070	90	0	0	0	0
87	30	10	3	7	1191	1815	90	0	0	0	0
85	25	10	3	7	1211	1605	90	0	0	0	0
85	35	30	12	18	1258	1938	90	0	0	0	0
75	55	20	15	5	242	1136	90	0	0	0	0
72	55	10	8	2	266	926	90	0	0	0	0
70	58	20	17	3	197	807	90	0	0	0	0
86	46	30	16	14	431	1417	90	0	0	0	0
66	55	10	8	2	128	973	90	0	0	0	0
64	46	20	14	6	1604	2182	90	0	0	0	0
65	60	30	28	2	128	708	90	0	0	0	0
56	64	10	9	1	123	739	90	0	0	0	0
60	55	10	9	1	122	820	90	0	0	0	0
60	60	10	10	0	124	1492	90	0	0	0	0
67	85	20	16	4	469	1099	90	0	0	0	0
42	58	40	29	11	1081	2019	90	0	0	0	0
65	82	10	8	2	454	926	90	0	0	0	0
62	80	30	23	7	363	831	90	0	0	0	0
62	40	10	6	4	1577	2401	90	0	0	0	0
60	85	30	21	9	544	1218	90	0	0	0	0
58	75	20	15	5	132	939	90	0	0	0	0
55	80	10	7	3	754	1388	90	0	0	0	0
55	85	20	13	7	757	1195	90	0	0	0	0

